nNurses = 148;
nHours = 27;
minHours = 7;
maxHours = 9;
maxConsec = 6;
maxPresence = 25;
demand = [5, 7, 11, 14, 14, 12, 11, 10, 7, 10, 14, 19, 23, 26, 29, 33, 32, 37, 34, 30, 26, 23, 28, 23, 26, 27, 25];
